DIMENSION: 20
EDGE_WEIGHT_TYPE: EXPLICIT
EDGE_WEIGHT_FORMAT: FULL_MATRIX
EDGE_WEIGHT_SECTION:
32767 32767 58 32767 32767 32767 32767 32767 7 32767 32767 32767 44 32767 32767 32767 32767 32767 32767 32767 
32767 32767 32767 32767 32767 32 32767 32767 32767 30 32767 32767 32767 32767 98 32767 5 28 32767 32767 
58 32767 32767 32767 32767 64 32767 32767 32767 32767 32767 32767 32767 32767 32767 30 32767 59 32767 32767 
32767 32767 32767 32767 32767 32767 32767 32767 30 36 32767 32767 32 32767 95 32767 54 32767 32767 32767 
32767 32767 32767 32767 32767 32767 32767 32767 80 32767 91 24 32767 32767 32767 51 32767 86 32767 32767 
32767 32 64 32767 32767 32767 32767 32767 32767 11 32767 64 80 18 32767 30 32767 32767 99 32767 
32767 32767 32767 32767 32767 32767 32767 32767 32767 32767 32767 32767 34 38 32767 75 52 32767 47 32767 
32767 32767 32767 32767 32767 32767 32767 32767 32767 32767 32767 32767 32767 32767 32767 32767 32767 32767 32767 66 
7 32767 32767 30 80 32767 32767 32767 32767 32767 67 98 76 57 32767 32767 32767 32767 32767 32767 
32767 30 32767 36 32767 11 32767 32767 32767 32767 32767 13 32767 32767 93 20 32767 32767 69 79 
32767 32767 32767 32767 91 32767 32767 32767 67 32767 32767 6 32767 1 32767 32767 32767 32767 69 61 
32767 32767 32767 32767 24 64 32767 32767 98 13 6 32767 53 32767 32767 79 32767 32767 32767 44 
44 32767 32767 32 32767 80 34 32767 76 32767 32767 53 32767 32767 32767 100 32767 32767 95 32767 
32767 32767 32767 32767 32767 18 38 32767 57 32767 1 32767 32767 32767 32767 32767 32767 68 88 32767 
32767 98 32767 95 32767 32767 32767 32767 32767 93 32767 32767 32767 32767 32767 32767 58 32767 32767 32767 
32767 32767 30 32767 51 30 75 32767 32767 20 32767 79 100 32767 32767 32767 32767 54 80 32767 
32767 5 32767 54 32767 32767 52 32767 32767 32767 32767 32767 32767 32767 58 32767 32767 75 58 32767 
32767 28 59 32767 86 32767 32767 32767 32767 32767 32767 32767 32767 68 32767 54 75 32767 67 32767 
32767 32767 32767 32767 32767 99 47 32767 32767 69 69 32767 95 88 32767 80 58 67 32767 32767 
32767 32767 32767 32767 32767 32767 32767 66 32767 79 61 44 32767 32767 32767 32767 32767 32767 32767 32767 
EOF